NAME: tsp20-27
TYPE: TSP
DIMENSION: 20
EDGE_WEIGHT_TYPE: EUC_2D
NODE_COORD_SECTION
0 91 66
1 93 24
2 98 80
3 37 16
4 87 68
5 55 59
6 47 35
7 36 12
8 82 32
9 58 95
10 58 24
11 7 51
12 84 22
13 29 77
14 88 24
15 97 3
16 45 55
17 36 100
18 4 67
19 36 41
EOF